example/lp.mps
*<meta creator='lp_solve v5.5'>
*<meta rows=2>
*<meta columns=3>
*<meta equalities=1>
*<meta integers=0>
*<meta origsense='MAX'>
*
NAME                  
ROWS
 N  R0      
 G  speed   
 E  R2      
COLUMNS
    money     R0        -3.000000000   speed     4.0000000000
    money     R2        2.0000000000
    C3        R0        -3.000000000   speed     1.0000000000
    C3        R2        4.0000000000
    C4        R0        -3.000000000   speed     2.0000000000
    C4        R2        2.0000000000
RHS
    RHS       speed     3.0000000000   R2        8.0000000000
BOUNDS
 LO BND       money     2.0000000000
 UP BND       C3        5.3000000000
ENDATA
